g3 1 1 0 # unnamed problem generated by COEK
 2 3 1 0 0 0 # vars, constraints, objectives, ranges, eqns, lcons
 1 1 # nonlinear constraints, objectives
 0 0 # network constraints: nonlinear, linear
 2 2 2 # nonlinear vars in constraints, objectives, both
 0 0 0 1 # linear network variables; functions; arith, flags
 0 0 0 0 0 # discrete variables: binary, integer, nonlinear (b,c,o)
 4 2 # nonzeros in Jacobian, gradients
 0 0 # max name lengths: constraints, variables
 0 0 0 0 0 # common exprs: b,c,o,c1,o1
C0
o2
n-1
o2
v0
v1
C1
n0
C2
n0
O0 0
o54
44
o5
o54
3
n0.49
o2
n-1
v0
o16
o2
o0
n0.49
o2
n-1
v0
n1
n2
o5
o54
3
n0.49
o2
n-1
v0
o16
o2
o0
n0.49
o2
n-1
v0
n1
n2
o5
o54
3
n0.48
o2
n-1
v0
o16
o2
o0
n0.49
o2
n-1
v0
o44
o2
o2
n-1
v1
n2
n2
o5
o54
3
n0.47
o2
n-1
v0
o16
o2
o0
n0.49
o2
n-1
v0
o44
o2
o2
n-1
v1
n2
n2
o5
o54
3
n0.48
o2
n-1
v0
o16
o2
o0
n0.49
o2
n-1
v0
o44
o2
o2
n-1
v1
n2
n2
o5
o54
3
n0.47
o2
n-1
v0
o16
o2
o0
n0.49
o2
n-1
v0
o44
o2
o2
n-1
v1
n2
n2
o5
o54
3
n0.46
o2
n-1
v0
o16
o2
o0
n0.49
o2
n-1
v0
o44
o2
o2
n-1
v1
n4
n2
o5
o54
3
n0.46
o2
n-1
v0
o16
o2
o0
n0.49
o2
n-1
v0
o44
o2
o2
n-1
v1
n4
n2
o5
o54
3
n0.45
o2
n-1
v0
o16
o2
o0
n0.49
o2
n-1
v0
o44
o2
o2
n-1
v1
n4
n2
o5
o54
3
n0.43
o2
n-1
v0
o16
o2
o0
n0.49
o2
n-1
v0
o44
o2
o2
n-1
v1
n4
n2
o5
o54
3
n0.45
o2
n-1
v0
o16
o2
o0
n0.49
o2
n-1
v0
o44
o2
o2
n-1
v1
n6
n2
o5
o54
3
n0.43
o2
n-1
v0
o16
o2
o0
n0.49
o2
n-1
v0
o44
o2
o2
n-1
v1
n6
n2
o5
o54
3
n0.43
o2
n-1
v0
o16
o2
o0
n0.49
o2
n-1
v0
o44
o2
o2
n-1
v1
n6
n2
o5
o54
3
n0.44
o2
n-1
v0
o16
o2
o0
n0.49
o2
n-1
v0
o44
o2
o2
n-1
v1
n8
n2
o5
o54
3
n0.43
o2
n-1
v0
o16
o2
o0
n0.49
o2
n-1
v0
o44
o2
o2
n-1
v1
n8
n2
o5
o54
3
n0.43
o2
n-1
v0
o16
o2
o0
n0.49
o2
n-1
v0
o44
o2
o2
n-1
v1
n8
n2
o5
o54
3
n0.46
o2
n-1
v0
o16
o2
o0
n0.49
o2
n-1
v0
o44
o2
o2
n-1
v1
n10
n2
o5
o54
3
n0.45
o2
n-1
v0
o16
o2
o0
n0.49
o2
n-1
v0
o44
o2
o2
n-1
v1
n10
n2
o5
o54
3
n0.42
o2
n-1
v0
o16
o2
o0
n0.49
o2
n-1
v0
o44
o2
o2
n-1
v1
n12
n2
o5
o54
3
n0.42
o2
n-1
v0
o16
o2
o0
n0.49
o2
n-1
v0
o44
o2
o2
n-1
v1
n12
n2
o5
o54
3
n0.43
o2
n-1
v0
o16
o2
o0
n0.49
o2
n-1
v0
o44
o2
o2
n-1
v1
n12
n2
o5
o54
3
n0.41
o2
n-1
v0
o16
o2
o0
n0.49
o2
n-1
v0
o44
o2
o2
n-1
v1
n14
n2
o5
o54
3
n0.41
o2
n-1
v0
o16
o2
o0
n0.49
o2
n-1
v0
o44
o2
o2
n-1
v1
n14
n2
o5
o54
3
n0.4
o2
n-1
v0
o16
o2
o0
n0.49
o2
n-1
v0
o44
o2
o2
n-1
v1
n14
n2
o5
o54
3
n0.42
o2
n-1
v0
o16
o2
o0
n0.49
o2
n-1
v0
o44
o2
o2
n-1
v1
n16
n2
o5
o54
3
n0.4
o2
n-1
v0
o16
o2
o0
n0.49
o2
n-1
v0
o44
o2
o2
n-1
v1
n16
n2
o5
o54
3
n0.4
o2
n-1
v0
o16
o2
o0
n0.49
o2
n-1
v0
o44
o2
o2
n-1
v1
n16
n2
o5
o54
3
n0.41
o2
n-1
v0
o16
o2
o0
n0.49
o2
n-1
v0
o44
o2
o2
n-1
v1
n18
n2
o5
o54
3
n0.4
o2
n-1
v0
o16
o2
o0
n0.49
o2
n-1
v0
o44
o2
o2
n-1
v1
n18
n2
o5
o54
3
n0.41
o2
n-1
v0
o16
o2
o0
n0.49
o2
n-1
v0
o44
o2
o2
n-1
v1
n18
n2
o5
o54
3
n0.41
o2
n-1
v0
o16
o2
o0
n0.49
o2
n-1
v0
o44
o2
o2
n-1
v1
n20
n2
o5
o54
3
n0.4
o2
n-1
v0
o16
o2
o0
n0.49
o2
n-1
v0
o44
o2
o2
n-1
v1
n20
n2
o5
o54
3
n0.4
o2
n-1
v0
o16
o2
o0
n0.49
o2
n-1
v0
o44
o2
o2
n-1
v1
n22
n2
o5
o54
3
n0.4
o2
n-1
v0
o16
o2
o0
n0.49
o2
n-1
v0
o44
o2
o2
n-1
v1
n22
n2
o5
o54
3
n0.38
o2
n-1
v0
o16
o2
o0
n0.49
o2
n-1
v0
o44
o2
o2
n-1
v1
n22
n2
o5
o54
3
n0.41
o2
n-1
v0
o16
o2
o0
n0.49
o2
n-1
v0
o44
o2
o2
n-1
v1
n24
n2
o5
o54
3
n0.4
o2
n-1
v0
o16
o2
o0
n0.49
o2
n-1
v0
o44
o2
o2
n-1
v1
n24
n2
o5
o54
3
n0.4
o2
n-1
v0
o16
o2
o0
n0.49
o2
n-1
v0
o44
o2
o2
n-1
v1
n26
n2
o5
o54
3
n0.41
o2
n-1
v0
o16
o2
o0
n0.49
o2
n-1
v0
o44
o2
o2
n-1
v1
n28
n2
o5
o54
3
n0.38
o2
n-1
v0
o16
o2
o0
n0.49
o2
n-1
v0
o44
o2
o2
n-1
v1
n28
n2
o5
o54
3
n0.4
o2
n-1
v0
o16
o2
o0
n0.49
o2
n-1
v0
o44
o2
o2
n-1
v1
n30
n2
o5
o54
3
n0.4
o2
n-1
v0
o16
o2
o0
n0.49
o2
n-1
v0
o44
o2
o2
n-1
v1
n30
n2
o5
o54
3
n0.39
o2
n-1
v0
o16
o2
o0
n0.49
o2
n-1
v0
o44
o2
o2
n-1
v1
n32
n2
o5
o54
3
n0.39
o2
n-1
v0
o16
o2
o0
n0.49
o2
n-1
v0
o44
o2
o2
n-1
v1
n34
n2
x2
0 0.42
1 5
r
2 0.09
2 0.4
2 -4
b
3
3
k1
2
J0 2
0 0
1 0.49
J1 1
0 1
J2 1
1 1
G0 2
0 0
1 0
